61 61
22 25
23 29
16 54
20 22
16 35
19 38
10 37
13 23
4 10
24 39
1 21
23 43
27 55
18 59
1 57
7 15
7 51
29 13
15 17
27 61
10 47
9 41
6 1
2 3
17 11
29 28
8 60
21 52
18 31
13 33
6 16
25 53
28 32
5 58
30 45
9 40
3 2
5 44
14 24
11 14
25 7
14 6
26 4
19 12
17 18
4 50
28 27
24 30
12 36
1 34
2 9
22 26
15 8
20 56
8 49
21 42
26 5
30 19
3 20
11 46
12 48
